%
% Generated Sudoku 25x25
% Density approximation: 0.20
%
x = array2d(1..n, 1..n, [
   _,   _,   _,   _,   _,   _,   _,   9,   _,   _,   _,  12,   _,   _,   _,   _,   _,   4,   _,   _,   _,   _,   _,   _,   _,
   4,   _,   _,   _,   _,   _,   _,   _,   5,   _,   _,  17,   _,   _,   _,   _,   _,   _,   _,   _,   _,   _,   _,   _,  11,
   _,   _,   _,   _,   _,   _,   _,   _,   1,  21,   _,   _,   _,   _,   _,   _,   _,   7,   _,  24,   _,   _,   _,   _,   _,
   _,   _,   _,   _,   _,   _,   _,   _,   _,  25,   _,   _,   _,   _,   _,   _,   _,   _,   _,  15,  19,   _,   _,   _,   9,
  19,   _,   _,   _,   _,   _,   _,   _,  15,   _,   _,   _,   _,   _,   _,   _,   _,   _,   _,   _,   _,   _,   _,   _,   _,
   _,   _,   _,   _,   _,   _,   _,   _,  25,   _,   _,   _,   _,   _,   _,   _,   _,   _,  21,   _,   _,   5,   _,   _,   _,
   _,   _,   _,   _,   _,   _,   _,   _,   _,   _,   _,  18,  19,   8,  25,   _,   _,   _,   _,   _,   _,   _,   _,   _,   _,
  14,   _,   _,   _,   _,  16,   8,   _,  13,   _,   _,   _,   _,   _,   _,  17,   _,   6,   _,  19,  12,   _,   _,   _,   _,
   _,   _,   _,   _,   _,   _,   5,   _,   _,   _,  23,   _,  21,   _,   _,   _,   _,  24,   9,   8,   _,   _,   _,   _,   _,
   _,   _,   _,   _,   _,   _,   _,   _,   _,   _,   _,   _,   _,   _,   _,   _,   _,   _,   4,   _,   _,   _,   _,  21,   _,
   _,  22,   _,   _,  19,   _,   _,   _,   _,   _,   _,   _,   _,   _,   _,   _,   _,   _,   _,   _,   _,   _,   _,   _,   _,
   _,   _,   _,   _,  16,   _,   _,  21,   _,   8,   _,   _,   _,   _,   _,   4,   _,  14,   _,   _,   _,   _,   _,   3,   _,
   _,   _,   1,   _,   _,   _,  19,   _,   _,  14,   _,   4,   _,   5,   8,   _,   _,   _,   _,  10,   2,   _,   _,   9,   _,
   _,   _,   _,   _,  23,   _,   _,   _,   _,   _,   _,   _,   _,   _,   _,   _,   _,   _,   _,   _,   _,   _,   _,  14,   _,
   _,   _,   _,   _,   _,   _,   _,   _,   _,   _,   7,  14,   9,  16,  21,  23,   _,   _,  24,   _,   _,   _,  13,   _,   _,
   _,   _,  25,  20,   _,   _,   _,   _,   _,   _,   _,   _,  22,   _,   _,   2,   4,   _,  15,   _,   _,   _,   _,   _,   _,
   _,   _,   _,   _,  18,   _,  25,  13,  14,   _,   _,   _,   _,   _,   _,   _,   _,   _,   _,   _,   _,   _,   _,   _,   _,
   _,   _,   _,  22,   _,   _,   _,   _,   _,   _,   _,   5,   _,   _,   _,   _,   _,   _,   _,   _,   _,   7,  17,   _,  10,
   _,   3,   2,   _,   _,   _,   _,   4,  24,   6,   _,   _,  20,  18,   _,   _,  14,   _,  23,   _,  16,   _,   _,   _,  21,
   _,   _,   _,   _,   _,   _,   _,   _,   _,   5,   _,   _,   _,   _,   _,  24,   _,  22,   _,  20,   _,   _,   _,   _,   _,
   _,   _,   _,   _,   _,   _,   _,   _,   _,   _,   _,   _,   _,   _,   _,   _,   _,   _,   _,  17,  14,  21,   _,   _,  25,
   _,   _,   _,   _,   _,   _,   _,  24,   _,   _,   _,   _,   _,  12,   _,   _,   _,   _,   _,   _,   _,   _,   _,   _,   _,
   _,  24,   3,   _,   _,   _,   _,  20,   _,  19,   _,   _,   _,   _,   _,   _,   9,   _,   _,   _,   _,   _,   _,   4,  13,
  18,   _,   _,   _,   _,   _,   _,   _,   _,   _,   _,   _,   _,   _,  20,  10,   _,   _,   8,   _,   _,   _,   7,   _,  12,
   _,   _,  19,   _,  12,  17,   _,   _,   _,  15,   _,   1,  18,   _,   5,   _,   _,   2,   _,   _,   _,   _,  23,   _,   _
]);

n = 25;
